\ SCIP STATISTICS
\   Problem name     : t_neos-3046615-murg
\   Variables        : 274 (240 binary, 16 integer, 0 implicit integer, 18 continuous)
\   Constraints      : 498
Minimize
 Obj: +1 t_C0017 +1 t_C0018
Subject to
 R0495: +1 t_C0273 -1 t_C0015 <= +30
 R0493: +1 t_C0271 -1 t_C0013 <= +32
 R0491: +1 t_C0269 -1 t_C0011 <= +44
 R0489: +1 t_C0267 -1 t_C0009 <= +19
 R0487: +1 t_C0265 -1 t_C0007 <= +45
 R0485: +1 t_C0263 -1 t_C0005 <= +21
 R0483: +1 t_C0261 -1 t_C0003 <= +11
 R0171: +1 t_C0104 +1 t_C0189 = +1
 R0479: +10000 t_C0257 -1 t_C0272 +1 t_C0274 >= +10
 R0028: +1 t_C0046 +1 t_C0215 = +1
 R0475: +10000 t_C0253 -1 t_C0268 +1 t_C0274 >= +7
 R0473: +10000 t_C0251 -1 t_C0266 +1 t_C0274 >= +14
 R0471: +10000 t_C0249 -1 t_C0264 +1 t_C0274 >= +8
 R0469: +10000 t_C0247 -1 t_C0262 +1 t_C0274 >= +11
 R0467: +10000 t_C0245 -1 t_C0260 +1 t_C0274 >= +12
 R0496: +1 t_C0274 -1 t_C0016 <= +16
 R0465: +10000 t_C0243 +1 t_C0273 -1 t_C0274 >= +6
 R0463: +10000 t_C0241 +1 t_C0273 -1 t_C0271 >= +3
 R0461: +10000 t_C0239 +1 t_C0273 -1 t_C0269 >= +10
 R0459: +10000 t_C0237 +1 t_C0273 -1 t_C0267 >= +10
 R0457: +10000 t_C0235 +1 t_C0273 -1 t_C0265 >= +16
 R0455: +10000 t_C0233 +1 t_C0273 -1 t_C0263 >= +14
 R0453: +10000 t_C0231 +1 t_C0273 -1 t_C0261 >= +7
 R0169: +1 t_C0074 +1 t_C0187 = +1
 R0034: +1 t_C0052 +1 t_C0081 = +1
 R0026: +1 t_C0044 +1 t_C0185 = +1
 R0445: +10000 t_C0223 +1 t_C0272 -1 t_C0268 >= +7
 R0443: +10000 t_C0221 +1 t_C0272 -1 t_C0266 >= +14
 R0441: +10000 t_C0219 +1 t_C0272 -1 t_C0264 >= +8
 R0086: +1 t_C0104 +1 t_C0189 = +1
 R0494: +1 t_C0272 -1 t_C0014 <= +7
 R0170: +1 t_C0089 +1 t_C0188 = +1
 R0401: +10000 t_C0179 -1 t_C0270 +1 t_C0269 >= +15
 R0435: +10000 t_C0213 +1 t_C0271 -1 t_C0274 >= +6
 R0433: +10000 t_C0211 -1 t_C0272 +1 t_C0271 >= +10
 R0431: +10000 t_C0209 +1 t_C0271 -1 t_C0269 >= +10
 R0429: +10000 t_C0207 +1 t_C0271 -1 t_C0267 >= +10
 R0427: +10000 t_C0205 +1 t_C0271 -1 t_C0265 >= +16
 R0425: +10000 t_C0203 +1 t_C0271 -1 t_C0263 >= +14
 R0423: +10000 t_C0201 +1 t_C0271 -1 t_C0261 >= +7
 R0167: +1 t_C0044 +1 t_C0185 = +1
 R0097: +1 t_C0115 +1 t_C0130 = +1
 R0409: +10000 t_C0187 +1 t_C0270 -1 t_C0262 >= +11
 R0047: +1 t_C0036 +1 t_C0065 = +1
 R0155: +1 t_C0088 +1 t_C0173 = +1
 R0164: +1 t_C0182 +1 t_C0239 = +1
 R0464: +10000 t_C0242 +1 t_C0273 -1 t_C0272 >= +10
 R0438: +10000 t_C0216 +1 t_C0272 -1 t_C0261 >= +7
 R0140: +1 t_C0087 +1 t_C0158 = +1
 R0241: +10000 t_C0019 -1 t_C0260 +1 t_C0259 >= +12
 R0152: +1 t_C0043 +1 t_C0170 = +1
 R0405: +10000 t_C0183 +1 t_C0269 -1 t_C0274 >= +6
 R0403: +10000 t_C0181 -1 t_C0272 +1 t_C0269 >= +10
 R0080: +1 t_C0083 +1 t_C0098 = +1
 R0399: +10000 t_C0177 +1 t_C0269 -1 t_C0267 >= +10
 R0397: +10000 t_C0175 +1 t_C0269 -1 t_C0265 >= +16
 R0395: +10000 t_C0173 +1 t_C0269 -1 t_C0263 >= +14
 R0393: +10000 t_C0171 +1 t_C0269 -1 t_C0261 >= +7
 R0174: +1 t_C0149 +1 t_C0192 = +1
 R0389: +10000 t_C0167 -1 t_C0273 +1 t_C0268 >= +13
 R0490: +1 t_C0268 -1 t_C0010 <= +69
 R0221: +1 t_C0182 +1 t_C0239 = +1
 R0168: +1 t_C0059 +1 t_C0186 = +1
 R0069: +1 t_C0087 +1 t_C0158 = +1
 R0387: +10000 t_C0165 -1 t_C0271 +1 t_C0268 >= +3
 R0385: +10000 t_C0163 -1 t_C0269 +1 t_C0268 >= +10
 R0383: +10000 t_C0161 +1 t_C0268 -1 t_C0266 >= +14
 R0381: +10000 t_C0159 +1 t_C0268 -1 t_C0264 >= +8
 R0416: +10000 t_C0194 +1 t_C0270 -1 t_C0269 >= +10
 R0377: +10000 t_C0155 +1 t_C0268 -1 t_C0260 >= +12
 R0375: +10000 t_C0153 +1 t_C0267 -1 t_C0274 >= +6
 R0062: +1 t_C0037 +1 t_C0080 = +1
 R0197: +1 t_C0046 +1 t_C0215 = +1
 R0224: +1 t_C0227 +1 t_C0242 = +1
 R0367: +10000 t_C0145 +1 t_C0267 -1 t_C0265 >= +16
 R0488: +1 t_C0266 -1 t_C0008 <= +46
 R0460: +10000 t_C0238 +1 t_C0273 -1 t_C0268 >= +7
 R0434: +10000 t_C0212 -1 t_C0273 +1 t_C0271 >= +13
 R0278: +10000 t_C0056 -1 t_C0267 +1 t_C0261 >= +10
 R0388: +10000 t_C0166 -1 t_C0272 +1 t_C0268 >= +10
 R0365: +10000 t_C0143 +1 t_C0267 -1 t_C0263 >= +14
 R0363: +10000 t_C0141 +1 t_C0267 -1 t_C0261 >= +7
 R0209: +1 t_C0227 +1 t_C0242 = +1
 R0359: +10000 t_C0137 -1 t_C0273 +1 t_C0266 >= +13
 R0357: +10000 t_C0135 -1 t_C0271 +1 t_C0266 >= +3
 R0355: +10000 t_C0133 -1 t_C0269 +1 t_C0266 >= +10
 R0353: +10000 t_C0131 -1 t_C0267 +1 t_C0266 >= +10
 R0351: +10000 t_C0129 +1 t_C0266 -1 t_C0264 >= +8
 R0175: +1 t_C0164 +1 t_C0193 = +1
 R0347: +10000 t_C0125 +1 t_C0266 -1 t_C0260 >= +12
 R0486: +1 t_C0264 -1 t_C0006 <= +13
 R0192: +1 t_C0195 +1 t_C0210 = +1
 R0134: +1 t_C0152 +1 t_C0237 = +1
 R0025: +1 t_C0043 +1 t_C0170 = +1
 R0198: +1 t_C0061 +1 t_C0216 = +1
 R0366: +10000 t_C0144 +1 t_C0267 -1 t_C0264 >= +8
 R0345: +10000 t_C0123 +1 t_C0265 -1 t_C0274 >= +6
 R0343: +10000 t_C0121 -1 t_C0272 +1 t_C0265 >= +10
 R0067: +1 t_C0085 +1 t_C0128 = +1
 R0339: +10000 t_C0117 -1 t_C0268 +1 t_C0265 >= +7
 R0337: +10000 t_C0115 -1 t_C0266 +1 t_C0265 >= +14
 R0335: +10000 t_C0113 +1 t_C0265 -1 t_C0263 >= +14
 R0333: +10000 t_C0111 +1 t_C0265 -1 t_C0261 >= +7
 R0251: +10000 t_C0029 -1 t_C0270 +1 t_C0259 >= +15
 R0329: +10000 t_C0107 -1 t_C0273 +1 t_C0264 >= +13
 R0415: +10000 t_C0193 +1 t_C0270 -1 t_C0268 >= +7
 R0456: +10000 t_C0234 +1 t_C0273 -1 t_C0264 >= +8
 R0430: +10000 t_C0208 +1 t_C0271 -1 t_C0268 >= +7
 R0065: +1 t_C0083 +1 t_C0098 = +1
 R0384: +10000 t_C0162 +1 t_C0268 -1 t_C0267 >= +10
 R0173: +1 t_C0134 +1 t_C0191 = +1
 R0477: +10000 t_C0255 -1 t_C0270 +1 t_C0274 >= +15
 R0327: +10000 t_C0105 -1 t_C0271 +1 t_C0264 >= +3
 R0325: +10000 t_C0103 -1 t_C0269 +1 t_C0264 >= +10
 R0323: +10000 t_C0101 -1 t_C0267 +1 t_C0264 >= +10
 R0321: +10000 t_C0099 -1 t_C0265 +1 t_C0264 >= +16
 R0319: +10000 t_C0097 +1 t_C0264 -1 t_C0262 >= +11
 R0317: +10000 t_C0095 +1 t_C0264 -1 t_C0260 >= +12
 R0315: +10000 t_C0093 +1 t_C0263 -1 t_C0274 >= +6
 R0313: +10000 t_C0091 -1 t_C0272 +1 t_C0263 >= +10
 R0482: +1 t_C0260 -1 t_C0002 <= +2
 R0408: +10000 t_C0186 +1 t_C0270 -1 t_C0261 >= +7
 R0428: +10000 t_C0206 +1 t_C0271 -1 t_C0266 >= +14
 R0404: +10000 t_C0182 -1 t_C0273 +1 t_C0269 >= +13
 R0382: +10000 t_C0160 +1 t_C0268 -1 t_C0265 >= +16
 R0362: +10000 t_C0140 +1 t_C0267 -1 t_C0260 >= +12
 R0344: +10000 t_C0122 -1 t_C0273 +1 t_C0265 >= +13
 R0328: +10000 t_C0106 -1 t_C0272 +1 t_C0264 >= +10
 R0048: +1 t_C0051 +1 t_C0066 = +1
 R0309: +10000 t_C0087 -1 t_C0268 +1 t_C0263 >= +7
 R0307: +10000 t_C0085 -1 t_C0266 +1 t_C0263 >= +14
 R0305: +10000 t_C0083 -1 t_C0264 +1 t_C0263 >= +8
 R0303: +10000 t_C0081 +1 t_C0263 -1 t_C0261 >= +7
 R0301: +10000 t_C0079 +1 t_C0263 -1 t_C0259 >= +11
 R0418: +10000 t_C0196 -1 t_C0272 +1 t_C0270 >= +10
 R0480: +10000 t_C0258 -1 t_C0273 +1 t_C0274 >= +13
 R0452: +10000 t_C0230 +1 t_C0273 -1 t_C0260 >= +12
 R0426: +10000 t_C0204 +1 t_C0271 -1 t_C0264 >= +8
 R0402: +10000 t_C0180 -1 t_C0271 +1 t_C0269 >= +3
 R0380: +10000 t_C0158 +1 t_C0268 -1 t_C0263 >= +14
 R0360: +10000 t_C0138 +1 t_C0266 -1 t_C0274 >= +6
 R0342: +10000 t_C0120 -1 t_C0271 +1 t_C0265 >= +3
 R0033: +1 t_C0051 +1 t_C0066 = +1
 R0312: +10000 t_C0090 -1 t_C0271 +1 t_C0263 >= +3
 R0297: +10000 t_C0075 -1 t_C0271 +1 t_C0262 >= +3
 R0419: +10000 t_C0197 -1 t_C0273 +1 t_C0270 >= +13
 R0447: +10000 t_C0225 +1 t_C0272 -1 t_C0270 >= +15
 R0492: +1 t_C0270 -1 t_C0012 <= +23
 R0289: +10000 t_C0067 -1 t_C0263 +1 t_C0262 >= +14
 R0287: +10000 t_C0065 +1 t_C0262 -1 t_C0260 >= +12
 R0478: +10000 t_C0256 -1 t_C0271 +1 t_C0274 >= +3
 R0450: +10000 t_C0228 +1 t_C0272 -1 t_C0274 >= +6
 R0424: +10000 t_C0202 +1 t_C0271 -1 t_C0262 >= +11
 R0400: +10000 t_C0178 +1 t_C0269 -1 t_C0268 >= +7
 R0378: +10000 t_C0156 +1 t_C0268 -1 t_C0261 >= +7
 R0358: +10000 t_C0136 -1 t_C0272 +1 t_C0266 >= +10
 R0340: +10000 t_C0118 -1 t_C0269 +1 t_C0265 >= +10
 R0324: +10000 t_C0102 -1 t_C0268 +1 t_C0264 >= +7
 R0310: +10000 t_C0088 -1 t_C0269 +1 t_C0263 >= +10
 R0172: +1 t_C0119 +1 t_C0190 = +1
 R0285: +10000 t_C0063 +1 t_C0261 -1 t_C0274 >= +6
 R0283: +10000 t_C0061 -1 t_C0272 +1 t_C0261 >= +10
 R0219: +1 t_C0152 +1 t_C0237 = +1
 R0279: +10000 t_C0057 -1 t_C0268 +1 t_C0261 >= +7
 R0277: +10000 t_C0055 -1 t_C0266 +1 t_C0261 >= +14
 R0476: +10000 t_C0254 -1 t_C0269 +1 t_C0274 >= +10
 R0448: +10000 t_C0226 +1 t_C0272 -1 t_C0271 >= +3
 R0422: +10000 t_C0200 +1 t_C0271 -1 t_C0260 >= +12
 R0398: +10000 t_C0176 +1 t_C0269 -1 t_C0266 >= +14
 R0371: +10000 t_C0149 -1 t_C0270 +1 t_C0267 >= +15
 R0043: +1 t_C0061 +1 t_C0216 = +1
 R0338: +10000 t_C0116 -1 t_C0267 +1 t_C0265 >= +10
 R0322: +10000 t_C0100 -1 t_C0266 +1 t_C0264 >= +14
 R0195: +1 t_C0213 +1 t_C0256 = +1
 R0110: +1 t_C0085 +1 t_C0128 = +1
 R0266: +10000 t_C0044 -1 t_C0270 +1 t_C0260 >= +15
 R0275: +10000 t_C0053 -1 t_C0264 +1 t_C0261 >= +8
 R0273: +10000 t_C0051 -1 t_C0262 +1 t_C0261 >= +11
 R0271: +10000 t_C0049 +1 t_C0261 -1 t_C0259 >= +11
 R0269: +10000 t_C0047 -1 t_C0273 +1 t_C0260 >= +13
 R0474: +10000 t_C0252 -1 t_C0267 +1 t_C0274 >= +10
 R0446: +10000 t_C0224 +1 t_C0272 -1 t_C0269 >= +10
 R0096: +1 t_C0099 +1 t_C0114 = +1
 R0396: +10000 t_C0174 +1 t_C0269 -1 t_C0264 >= +8
 R0374: +10000 t_C0152 -1 t_C0273 +1 t_C0267 >= +13
 R0354: +10000 t_C0132 -1 t_C0268 +1 t_C0266 >= +7
 R0336: +10000 t_C0114 +1 t_C0265 -1 t_C0264 >= +8
 R0320: +10000 t_C0098 +1 t_C0264 -1 t_C0263 >= +14
 R0306: +10000 t_C0084 -1 t_C0265 +1 t_C0263 >= +16
 R0420: +10000 t_C0198 +1 t_C0270 -1 t_C0274 >= +6
 R0284: +10000 t_C0062 -1 t_C0273 +1 t_C0261 >= +13
 R0276: +10000 t_C0054 -1 t_C0265 +1 t_C0261 >= +16
 R0267: +10000 t_C0045 -1 t_C0271 +1 t_C0260 >= +3
 R0265: +10000 t_C0043 -1 t_C0269 +1 t_C0260 >= +10
 R0263: +10000 t_C0041 -1 t_C0267 +1 t_C0260 >= +10
 R0472: +10000 t_C0250 -1 t_C0265 +1 t_C0274 >= +16
 R0072: +1 t_C0090 +1 t_C0203 = +1
 R0410: +10000 t_C0188 +1 t_C0270 -1 t_C0263 >= +14
 R0180: +1 t_C0198 +1 t_C0255 = +1
 R0372: +10000 t_C0150 -1 t_C0271 +1 t_C0267 >= +3
 R0352: +10000 t_C0130 +1 t_C0266 -1 t_C0265 >= +16
 R0417: +10000 t_C0195 -1 t_C0271 +1 t_C0270 >= +3
 R0318: +10000 t_C0096 +1 t_C0264 -1 t_C0261 >= +7
 R0304: +10000 t_C0082 +1 t_C0263 -1 t_C0262 >= +11
 R0462: +10000 t_C0240 +1 t_C0273 -1 t_C0270 >= +15
 R0282: +10000 t_C0060 -1 t_C0271 +1 t_C0261 >= +3
 R0274: +10000 t_C0052 -1 t_C0263 +1 t_C0261 >= +14
 R0268: +10000 t_C0046 -1 t_C0272 +1 t_C0260 >= +10
 R0261: +10000 t_C0039 -1 t_C0265 +1 t_C0260 >= +16
 R0259: +10000 t_C0037 -1 t_C0263 +1 t_C0260 >= +14
 R0470: +10000 t_C0248 -1 t_C0263 +1 t_C0274 >= +14
 R0442: +10000 t_C0220 +1 t_C0272 -1 t_C0265 >= +16
 R0018: +1 t_C0036 +1 t_C0065 = +1
 R0392: +10000 t_C0170 +1 t_C0269 -1 t_C0260 >= +12
 R0370: +10000 t_C0148 -1 t_C0269 +1 t_C0267 >= +10
 R0350: +10000 t_C0128 +1 t_C0266 -1 t_C0263 >= +14
 R0332: +10000 t_C0110 +1 t_C0265 -1 t_C0260 >= +12
 R0432: +10000 t_C0210 +1 t_C0271 -1 t_C0270 >= +15
 R0302: +10000 t_C0080 +1 t_C0263 -1 t_C0260 >= +12
 R0290: +10000 t_C0068 -1 t_C0264 +1 t_C0262 >= +8
 R0280: +10000 t_C0058 -1 t_C0269 +1 t_C0261 >= +10
 R0272: +10000 t_C0050 +1 t_C0261 -1 t_C0260 >= +12
 R0089: +1 t_C0107 +1 t_C0234 = +1
 R0262: +10000 t_C0040 -1 t_C0266 +1 t_C0260 >= +14
 R0497: +1 t_C0273 +1 t_C0272 +1 t_C0271 +1 t_C0270 +1 t_C0269 +1 t_C0268 +1 t_C0267 +1 t_C0266 +1 t_C0265
  +1 t_C0264 +1 t_C0263 +1 t_C0262 +1 t_C0261 +1 t_C0260 +1 t_C0259 +1 t_C0274 -1 t_C0018 <= +203
 R0468: +10000 t_C0246 -1 t_C0261 +1 t_C0274 >= +7
 R0440: +10000 t_C0218 +1 t_C0272 -1 t_C0263 >= +14
 R0070: +1 t_C0088 +1 t_C0173 = +1
 R0390: +10000 t_C0168 +1 t_C0268 -1 t_C0274 >= +6
 R0368: +10000 t_C0146 +1 t_C0267 -1 t_C0266 >= +14
 R0348: +10000 t_C0126 +1 t_C0266 -1 t_C0261 >= +7
 R0330: +10000 t_C0108 +1 t_C0264 -1 t_C0274 >= +6
 R0314: +10000 t_C0092 -1 t_C0273 +1 t_C0263 >= +13
 R0300: +10000 t_C0078 +1 t_C0262 -1 t_C0274 >= +6
 R0288: +10000 t_C0066 +1 t_C0262 -1 t_C0261 >= +7
 R0234: +1 t_C0153 +1 t_C0252 = +1
 R0238: +1 t_C0213 +1 t_C0256 = +1
 R0264: +10000 t_C0042 -1 t_C0268 +1 t_C0260 >= +7
 R0225: +1 t_C0258 +1 t_C0243 = +1
 R0498: +1 t_C0005 +1 t_C0006 +1 t_C0007 +1 t_C0008 +1 t_C0009 +1 t_C0010 +1 t_C0011 +1 t_C0012 +1 t_C0013
  +1 t_C0014 +1 t_C0015 +1 t_C0016 -1 t_C0017 +1 t_C0001 +1 t_C0002 +1 t_C0003 +1 t_C0004 <= +0
 R0240: +1 t_C0258 +1 t_C0243 = +1
 R0242: +10000 t_C0020 -1 t_C0261 +1 t_C0259 >= +7
 R0281: +10000 t_C0059 -1 t_C0270 +1 t_C0261 >= +15
 R0244: +10000 t_C0022 -1 t_C0263 +1 t_C0259 >= +14
 R0245: +10000 t_C0023 -1 t_C0264 +1 t_C0259 >= +8
 R0246: +10000 t_C0024 -1 t_C0265 +1 t_C0259 >= +16
 R0135: +1 t_C0153 +1 t_C0252 = +1
 R0248: +10000 t_C0026 -1 t_C0267 +1 t_C0259 >= +10
 R0249: +10000 t_C0027 -1 t_C0268 +1 t_C0259 >= +7
 R0250: +10000 t_C0028 -1 t_C0269 +1 t_C0259 >= +10
 R0216: +1 t_C0107 +1 t_C0234 = +1
 R0252: +10000 t_C0030 -1 t_C0271 +1 t_C0259 >= +3
 R0019: +1 t_C0037 +1 t_C0080 = +1
 R0254: +10000 t_C0032 -1 t_C0273 +1 t_C0259 >= +13
 R0255: +10000 t_C0033 +1 t_C0259 -1 t_C0274 >= +6
 R0256: +10000 t_C0034 +1 t_C0260 -1 t_C0259 >= +11
 R0257: +10000 t_C0035 -1 t_C0261 +1 t_C0260 >= +7
 R0258: +10000 t_C0036 -1 t_C0262 +1 t_C0260 >= +11
 R0105: +1 t_C0123 +1 t_C0250 = +1
 R0232: +1 t_C0123 +1 t_C0250 = +1
 R0049: +1 t_C0067 +1 t_C0082 = +1
 R0064: +1 t_C0067 +1 t_C0082 = +1
 R0326: +10000 t_C0104 -1 t_C0270 +1 t_C0264 >= +15
 R0311: +10000 t_C0089 -1 t_C0270 +1 t_C0263 >= +15
 R0157: +1 t_C0118 +1 t_C0175 = +1
 R0100: +1 t_C0118 +1 t_C0175 = +1
 R0102: +1 t_C0120 +1 t_C0205 = +1
 R0187: +1 t_C0120 +1 t_C0205 = +1
 R0103: +1 t_C0121 +1 t_C0220 = +1
 R0202: +1 t_C0121 +1 t_C0220 = +1
 R0138: +1 t_C0057 +1 t_C0156 = +1
 R0039: +1 t_C0057 +1 t_C0156 = +1
 R0057: +1 t_C0075 +1 t_C0202 = +1
 R0184: +1 t_C0075 +1 t_C0202 = +1
 R0079: +1 t_C0068 +1 t_C0097 = +1
 R0050: +1 t_C0068 +1 t_C0097 = +1
 R0236: +1 t_C0183 +1 t_C0254 = +1
 R0165: +1 t_C0183 +1 t_C0254 = +1
 R0229: +1 t_C0078 +1 t_C0247 = +1
 R0060: +1 t_C0078 +1 t_C0247 = +1
 R0206: +1 t_C0181 +1 t_C0224 = +1
 R0163: +1 t_C0181 +1 t_C0224 = +1
 R0191: +1 t_C0180 +1 t_C0209 = +1
 R0162: +1 t_C0180 +1 t_C0209 = +1
 R0200: +1 t_C0091 +1 t_C0218 = +1
 R0386: +10000 t_C0164 -1 t_C0270 +1 t_C0268 >= +15
 R0235: +1 t_C0168 +1 t_C0253 = +1
 R0150: +1 t_C0168 +1 t_C0253 = +1
 R0220: +1 t_C0167 +1 t_C0238 = +1
 R0149: +1 t_C0167 +1 t_C0238 = +1
 R0205: +1 t_C0166 +1 t_C0223 = +1
 R0148: +1 t_C0166 +1 t_C0223 = +1
 R0190: +1 t_C0165 +1 t_C0208 = +1
 R0147: +1 t_C0165 +1 t_C0208 = +1
 R0073: +1 t_C0091 +1 t_C0218 = +1
 R0024: +1 t_C0042 +1 t_C0155 = +1
 R0160: +1 t_C0163 +1 t_C0178 = +1
 R0145: +1 t_C0163 +1 t_C0178 = +1
 R0071: +1 t_C0089 +1 t_C0188 = +1
 R0029: +1 t_C0047 +1 t_C0230 = +1
 R0412: +10000 t_C0190 +1 t_C0270 -1 t_C0265 >= +16
 R0074: +1 t_C0092 +1 t_C0233 = +1
 R0115: +1 t_C0133 +1 t_C0176 = +1
 R0158: +1 t_C0133 +1 t_C0176 = +1
 R0189: +1 t_C0150 +1 t_C0207 = +1
 R0132: +1 t_C0150 +1 t_C0207 = +1
 R0217: +1 t_C0122 +1 t_C0235 = +1
 R0104: +1 t_C0122 +1 t_C0235 = +1
 R0113: +1 t_C0131 +1 t_C0146 = +1
 R0128: +1 t_C0131 +1 t_C0146 = +1
 R0098: +1 t_C0116 +1 t_C0145 = +1
 R0127: +1 t_C0116 +1 t_C0145 = +1
 R0233: +1 t_C0138 +1 t_C0251 = +1
 R0120: +1 t_C0138 +1 t_C0251 = +1
 R0296: +10000 t_C0074 -1 t_C0270 +1 t_C0262 >= +15
 R0341: +10000 t_C0119 -1 t_C0270 +1 t_C0265 >= +15
 R0203: +1 t_C0136 +1 t_C0221 = +1
 R0118: +1 t_C0136 +1 t_C0221 = +1
 R0188: +1 t_C0135 +1 t_C0206 = +1
 R0117: +1 t_C0135 +1 t_C0206 = +1
 R0413: +10000 t_C0191 +1 t_C0270 -1 t_C0266 >= +14
 R0373: +10000 t_C0151 -1 t_C0272 +1 t_C0267 >= +10
 R0247: +10000 t_C0025 -1 t_C0266 +1 t_C0259 >= +14
 R0082: +1 t_C0100 +1 t_C0129 = +1
 R0032: +1 t_C0035 +1 t_C0050 = +1
 R0017: +1 t_C0035 +1 t_C0050 = +1
 R0159: +1 t_C0148 +1 t_C0177 = +1
 R0130: +1 t_C0148 +1 t_C0177 = +1
 R0239: +1 t_C0228 +1 t_C0257 = +1
 R0210: +1 t_C0228 +1 t_C0257 = +1
 R0182: +1 t_C0045 +1 t_C0200 = +1
 R0027: +1 t_C0045 +1 t_C0200 = +1
 R0112: +1 t_C0115 +1 t_C0130 = +1
 R0081: +1 t_C0099 +1 t_C0114 = +1
 R0208: +1 t_C0211 +1 t_C0226 = +1
 R0193: +1 t_C0211 +1 t_C0226 = +1
 R0142: +1 t_C0117 +1 t_C0160 = +1
 R0099: +1 t_C0117 +1 t_C0160 = +1
 R0088: +1 t_C0106 +1 t_C0219 = +1
 R0111: +1 t_C0100 +1 t_C0129 = +1
 R0125: +1 t_C0086 +1 t_C0143 = +1
 R0068: +1 t_C0086 +1 t_C0143 = +1
 R0449: +10000 t_C0227 -1 t_C0273 +1 t_C0272 >= +13
 R0260: +10000 t_C0038 -1 t_C0264 +1 t_C0260 >= +8
 R0201: +1 t_C0106 +1 t_C0219 = +1
 R0101: +1 t_C0119 +1 t_C0190 = +1
 R0041: +1 t_C0059 +1 t_C0186 = +1
 R0146: +1 t_C0164 +1 t_C0193 = +1
 R0108: +1 t_C0055 +1 t_C0126 = +1
 R0037: +1 t_C0055 +1 t_C0126 = +1
 R0063: +1 t_C0052 +1 t_C0081 = +1
 R0161: +1 t_C0179 +1 t_C0194 = +1
 R0223: +1 t_C0212 +1 t_C0241 = +1
 R0194: +1 t_C0212 +1 t_C0241 = +1
 R0177: +1 t_C0195 +1 t_C0210 = +1
 R0176: +1 t_C0179 +1 t_C0194 = +1
 R0095: +1 t_C0084 +1 t_C0113 = +1
 R0066: +1 t_C0084 +1 t_C0113 = +1
 R0122: +1 t_C0041 +1 t_C0140 = +1
 R0023: +1 t_C0041 +1 t_C0140 = +1
 R0093: +1 t_C0054 +1 t_C0111 = +1
 R0036: +1 t_C0054 +1 t_C0111 = +1
 R0213: +1 t_C0062 +1 t_C0231 = +1
 R0044: +1 t_C0062 +1 t_C0231 = +1
 R0056: +1 t_C0074 +1 t_C0187 = +1
 R0131: +1 t_C0149 +1 t_C0192 = +1
 R0038: +1 t_C0056 +1 t_C0141 = +1
 R0123: +1 t_C0056 +1 t_C0141 = +1
 R0143: +1 t_C0132 +1 t_C0161 = +1
 R0114: +1 t_C0132 +1 t_C0161 = +1
 R0231: +1 t_C0108 +1 t_C0249 = +1
 R0090: +1 t_C0108 +1 t_C0249 = +1
 R0212: +1 t_C0047 +1 t_C0230 = +1
 R0116: +1 t_C0134 +1 t_C0191 = +1
 R0308: +10000 t_C0086 -1 t_C0267 +1 t_C0263 >= +10
 R0414: +10000 t_C0192 +1 t_C0270 -1 t_C0267 >= +10
 R0137: +1 t_C0042 +1 t_C0155 = +1
 R0356: +10000 t_C0134 -1 t_C0270 +1 t_C0266 >= +15
 R0237: +1 t_C0198 +1 t_C0255 = +1
 R0407: +10000 t_C0185 +1 t_C0270 -1 t_C0260 >= +12
 R0411: +10000 t_C0189 +1 t_C0270 -1 t_C0264 >= +8
 R0215: +1 t_C0092 +1 t_C0233 = +1
 R0092: +1 t_C0039 +1 t_C0110 = +1
 R0021: +1 t_C0039 +1 t_C0110 = +1
 R0227: +1 t_C0048 +1 t_C0245 = +1
 R0030: +1 t_C0048 +1 t_C0245 = +1
 R0228: +1 t_C0063 +1 t_C0246 = +1
 R0045: +1 t_C0063 +1 t_C0246 = +1
 R0126: +1 t_C0101 +1 t_C0144 = +1
 R0083: +1 t_C0101 +1 t_C0144 = +1
 R0183: +1 t_C0060 +1 t_C0201 = +1
 R0042: +1 t_C0060 +1 t_C0201 = +1
 R0253: +10000 t_C0031 -1 t_C0272 +1 t_C0259 >= +10
 R0270: +10000 t_C0048 +1 t_C0260 -1 t_C0274 >= +6
 R0084: +1 t_C0102 +1 t_C0159 = +1
 R0141: +1 t_C0102 +1 t_C0159 = +1
 R0185: +1 t_C0090 +1 t_C0203 = +1
 R0364: +10000 t_C0142 +1 t_C0267 -1 t_C0262 >= +11
 R0437: +10000 t_C0215 +1 t_C0272 -1 t_C0260 >= +12
 R0444: +10000 t_C0222 +1 t_C0272 -1 t_C0267 >= +10
 R0230: +1 t_C0093 +1 t_C0248 = +1
 R0075: +1 t_C0093 +1 t_C0248 = +1
 R0012: +1 t_C0030 +1 t_C0199 = +1
 R0003: +1 t_C0021 +1 t_C0064 = +1
 R0001: +1 t_C0019 +1 t_C0034 = +1
 R0016: +1 t_C0019 +1 t_C0034 = +1
 R0002: +1 t_C0020 +1 t_C0049 = +1
 R0031: +1 t_C0020 +1 t_C0049 = +1
 R0046: +1 t_C0021 +1 t_C0064 = +1
 R0004: +1 t_C0022 +1 t_C0079 = +1
 R0061: +1 t_C0022 +1 t_C0079 = +1
 R0006: +1 t_C0024 +1 t_C0109 = +1
 R0091: +1 t_C0024 +1 t_C0109 = +1
 R0007: +1 t_C0025 +1 t_C0124 = +1
 R0106: +1 t_C0025 +1 t_C0124 = +1
 R0009: +1 t_C0027 +1 t_C0154 = +1
 R0136: +1 t_C0027 +1 t_C0154 = +1
 R0010: +1 t_C0028 +1 t_C0169 = +1
 R0151: +1 t_C0028 +1 t_C0169 = +1
 R0181: +1 t_C0030 +1 t_C0199 = +1
 R0013: +1 t_C0031 +1 t_C0214 = +1
 R0196: +1 t_C0031 +1 t_C0214 = +1
 R0014: +1 t_C0032 +1 t_C0229 = +1
 R0211: +1 t_C0032 +1 t_C0229 = +1
 R0005: +1 t_C0023 +1 t_C0094 = +1
 R0076: +1 t_C0023 +1 t_C0094 = +1
 R0439: +10000 t_C0217 +1 t_C0272 -1 t_C0262 >= +11
 R0008: +1 t_C0026 +1 t_C0139 = +1
 R0121: +1 t_C0026 +1 t_C0139 = +1
 R0053: +1 t_C0071 +1 t_C0142 = +1
 R0124: +1 t_C0071 +1 t_C0142 = +1
 R0481: +1 t_C0259 -1 t_C0001 <= +22
 R0466: +10000 t_C0244 -1 t_C0259 +1 t_C0274 >= +11
 R0451: +10000 t_C0229 +1 t_C0273 -1 t_C0259 >= +11
 R0436: +10000 t_C0214 +1 t_C0272 -1 t_C0259 >= +11
 R0421: +10000 t_C0199 +1 t_C0271 -1 t_C0259 >= +11
 R0406: +10000 t_C0184 +1 t_C0270 -1 t_C0259 >= +11
 R0391: +10000 t_C0169 +1 t_C0269 -1 t_C0259 >= +11
 R0376: +10000 t_C0154 +1 t_C0268 -1 t_C0259 >= +11
 R0346: +10000 t_C0124 +1 t_C0266 -1 t_C0259 >= +11
 R0331: +10000 t_C0109 +1 t_C0265 -1 t_C0259 >= +11
 R0286: +10000 t_C0064 +1 t_C0262 -1 t_C0259 >= +11
 R0243: +10000 t_C0021 -1 t_C0262 +1 t_C0259 >= +11
 R0316: +10000 t_C0094 +1 t_C0264 -1 t_C0259 >= +11
 R0058: +1 t_C0076 +1 t_C0217 = +1
 R0199: +1 t_C0076 +1 t_C0217 = +1
 R0293: +10000 t_C0071 -1 t_C0267 +1 t_C0262 >= +10
 R0361: +10000 t_C0139 +1 t_C0267 -1 t_C0259 >= +11
 R0369: +10000 t_C0147 -1 t_C0268 +1 t_C0267 >= +7
 R0077: +1 t_C0038 +1 t_C0095 = +1
 R0020: +1 t_C0038 +1 t_C0095 = +1
 R0298: +10000 t_C0076 -1 t_C0272 +1 t_C0262 >= +10
 R0207: +1 t_C0196 +1 t_C0225 = +1
 R0178: +1 t_C0196 +1 t_C0225 = +1
 R0349: +10000 t_C0127 +1 t_C0266 -1 t_C0262 >= +11
 R0166: +1 t_C0029 +1 t_C0184 = +1
 R0011: +1 t_C0029 +1 t_C0184 = +1
 R0458: +10000 t_C0236 +1 t_C0273 -1 t_C0266 >= +14
 R0153: +1 t_C0058 +1 t_C0171 = +1
 R0040: +1 t_C0058 +1 t_C0171 = +1
 R0454: +10000 t_C0232 +1 t_C0273 -1 t_C0262 >= +11
 R0394: +10000 t_C0172 +1 t_C0269 -1 t_C0262 >= +11
 R0186: +1 t_C0105 +1 t_C0204 = +1
 R0087: +1 t_C0105 +1 t_C0204 = +1
 R0094: +1 t_C0069 +1 t_C0112 = +1
 R0109: +1 t_C0070 +1 t_C0127 = +1
 R0139: +1 t_C0072 +1 t_C0157 = +1
 R0154: +1 t_C0073 +1 t_C0172 = +1
 R0214: +1 t_C0077 +1 t_C0232 = +1
 R0059: +1 t_C0077 +1 t_C0232 = +1
 R0055: +1 t_C0073 +1 t_C0172 = +1
 R0054: +1 t_C0072 +1 t_C0157 = +1
 R0052: +1 t_C0070 +1 t_C0127 = +1
 R0051: +1 t_C0069 +1 t_C0112 = +1
 R0484: +1 t_C0262 -1 t_C0004 <= +46
 R0379: +10000 t_C0157 +1 t_C0268 -1 t_C0262 >= +11
 R0334: +10000 t_C0112 +1 t_C0265 -1 t_C0262 >= +11
 R0299: +10000 t_C0077 -1 t_C0273 +1 t_C0262 >= +13
 R0295: +10000 t_C0073 -1 t_C0269 +1 t_C0262 >= +10
 R0294: +10000 t_C0072 -1 t_C0268 +1 t_C0262 >= +7
 R0292: +10000 t_C0070 -1 t_C0266 +1 t_C0262 >= +14
 R0291: +10000 t_C0069 -1 t_C0265 +1 t_C0262 >= +16
 R0226: +1 t_C0033 +1 t_C0244 = +1
 R0015: +1 t_C0033 +1 t_C0244 = +1
 R0156: +1 t_C0103 +1 t_C0174 = +1
 R0085: +1 t_C0103 +1 t_C0174 = +1
 R0078: +1 t_C0053 +1 t_C0096 = +1
 R0035: +1 t_C0053 +1 t_C0096 = +1
 R0222: +1 t_C0197 +1 t_C0240 = +1
 R0179: +1 t_C0197 +1 t_C0240 = +1
 R0144: +1 t_C0147 +1 t_C0162 = +1
 R0129: +1 t_C0147 +1 t_C0162 = +1
 R0204: +1 t_C0151 +1 t_C0222 = +1
 R0133: +1 t_C0151 +1 t_C0222 = +1
 R0218: +1 t_C0137 +1 t_C0236 = +1
 R0119: +1 t_C0137 +1 t_C0236 = +1
 R0107: +1 t_C0040 +1 t_C0125 = +1
 R0022: +1 t_C0040 +1 t_C0125 = +1
Bounds
 0 <= t_C0258 <= 1
 0 <= t_C0019 <= 1
 0 <= t_C0020 <= 1
 0 <= t_C0021 <= 1
 0 <= t_C0022 <= 1
 0 <= t_C0023 <= 1
 0 <= t_C0024 <= 1
 0 <= t_C0025 <= 1
 0 <= t_C0026 <= 1
 0 <= t_C0027 <= 1
 0 <= t_C0028 <= 1
 0 <= t_C0029 <= 1
 0 <= t_C0030 <= 1
 0 <= t_C0031 <= 1
 0 <= t_C0032 <= 1
 0 <= t_C0033 <= 1
 0 <= t_C0034 <= 1
 0 <= t_C0035 <= 1
 0 <= t_C0036 <= 1
 0 <= t_C0037 <= 1
 0 <= t_C0038 <= 1
 0 <= t_C0039 <= 1
 0 <= t_C0040 <= 1
 0 <= t_C0041 <= 1
 0 <= t_C0042 <= 1
 0 <= t_C0043 <= 1
 0 <= t_C0044 <= 1
 0 <= t_C0045 <= 1
 0 <= t_C0046 <= 1
 0 <= t_C0047 <= 1
 0 <= t_C0048 <= 1
 0 <= t_C0049 <= 1
 0 <= t_C0050 <= 1
 0 <= t_C0051 <= 1
 0 <= t_C0052 <= 1
 0 <= t_C0053 <= 1
 0 <= t_C0054 <= 1
 0 <= t_C0055 <= 1
 0 <= t_C0056 <= 1
 0 <= t_C0057 <= 1
 0 <= t_C0058 <= 1
 0 <= t_C0059 <= 1
 0 <= t_C0060 <= 1
 0 <= t_C0061 <= 1
 0 <= t_C0062 <= 1
 0 <= t_C0063 <= 1
 0 <= t_C0064 <= 1
 0 <= t_C0065 <= 1
 0 <= t_C0066 <= 1
 0 <= t_C0067 <= 1
 0 <= t_C0068 <= 1
 0 <= t_C0069 <= 1
 0 <= t_C0070 <= 1
 0 <= t_C0071 <= 1
 0 <= t_C0072 <= 1
 0 <= t_C0073 <= 1
 0 <= t_C0074 <= 1
 0 <= t_C0075 <= 1
 0 <= t_C0076 <= 1
 0 <= t_C0077 <= 1
 0 <= t_C0078 <= 1
 0 <= t_C0079 <= 1
 0 <= t_C0080 <= 1
 0 <= t_C0081 <= 1
 0 <= t_C0082 <= 1
 0 <= t_C0083 <= 1
 0 <= t_C0084 <= 1
 0 <= t_C0085 <= 1
 0 <= t_C0086 <= 1
 0 <= t_C0087 <= 1
 0 <= t_C0088 <= 1
 0 <= t_C0089 <= 1
 0 <= t_C0090 <= 1
 0 <= t_C0091 <= 1
 0 <= t_C0092 <= 1
 0 <= t_C0093 <= 1
 0 <= t_C0094 <= 1
 0 <= t_C0095 <= 1
 0 <= t_C0096 <= 1
 0 <= t_C0097 <= 1
 0 <= t_C0098 <= 1
 0 <= t_C0099 <= 1
 0 <= t_C0100 <= 1
 0 <= t_C0101 <= 1
 0 <= t_C0102 <= 1
 0 <= t_C0103 <= 1
 0 <= t_C0104 <= 1
 0 <= t_C0105 <= 1
 0 <= t_C0106 <= 1
 0 <= t_C0107 <= 1
 0 <= t_C0108 <= 1
 0 <= t_C0109 <= 1
 0 <= t_C0110 <= 1
 0 <= t_C0111 <= 1
 0 <= t_C0112 <= 1
 0 <= t_C0113 <= 1
 0 <= t_C0114 <= 1
 0 <= t_C0115 <= 1
 0 <= t_C0116 <= 1
 0 <= t_C0117 <= 1
 0 <= t_C0118 <= 1
 0 <= t_C0119 <= 1
 0 <= t_C0120 <= 1
 0 <= t_C0121 <= 1
 0 <= t_C0122 <= 1
 0 <= t_C0123 <= 1
 0 <= t_C0124 <= 1
 0 <= t_C0125 <= 1
 0 <= t_C0126 <= 1
 0 <= t_C0127 <= 1
 0 <= t_C0128 <= 1
 0 <= t_C0129 <= 1
 0 <= t_C0130 <= 1
 0 <= t_C0131 <= 1
 0 <= t_C0132 <= 1
 0 <= t_C0133 <= 1
 0 <= t_C0134 <= 1
 0 <= t_C0135 <= 1
 0 <= t_C0136 <= 1
 0 <= t_C0137 <= 1
 0 <= t_C0138 <= 1
 0 <= t_C0139 <= 1
 0 <= t_C0140 <= 1
 0 <= t_C0141 <= 1
 0 <= t_C0142 <= 1
 0 <= t_C0143 <= 1
 0 <= t_C0144 <= 1
 0 <= t_C0145 <= 1
 0 <= t_C0146 <= 1
 0 <= t_C0147 <= 1
 0 <= t_C0148 <= 1
 0 <= t_C0149 <= 1
 0 <= t_C0150 <= 1
 0 <= t_C0151 <= 1
 0 <= t_C0152 <= 1
 0 <= t_C0153 <= 1
 0 <= t_C0154 <= 1
 0 <= t_C0155 <= 1
 0 <= t_C0156 <= 1
 0 <= t_C0157 <= 1
 0 <= t_C0158 <= 1
 0 <= t_C0159 <= 1
 0 <= t_C0160 <= 1
 0 <= t_C0161 <= 1
 0 <= t_C0162 <= 1
 0 <= t_C0163 <= 1
 0 <= t_C0164 <= 1
 0 <= t_C0165 <= 1
 0 <= t_C0166 <= 1
 0 <= t_C0167 <= 1
 0 <= t_C0168 <= 1
 0 <= t_C0169 <= 1
 0 <= t_C0170 <= 1
 0 <= t_C0171 <= 1
 0 <= t_C0172 <= 1
 0 <= t_C0173 <= 1
 0 <= t_C0174 <= 1
 0 <= t_C0175 <= 1
 0 <= t_C0176 <= 1
 0 <= t_C0177 <= 1
 0 <= t_C0178 <= 1
 0 <= t_C0179 <= 1
 0 <= t_C0180 <= 1
 0 <= t_C0181 <= 1
 0 <= t_C0182 <= 1
 0 <= t_C0183 <= 1
 0 <= t_C0184 <= 1
 0 <= t_C0185 <= 1
 0 <= t_C0186 <= 1
 0 <= t_C0187 <= 1
 0 <= t_C0188 <= 1
 0 <= t_C0189 <= 1
 0 <= t_C0190 <= 1
 0 <= t_C0191 <= 1
 0 <= t_C0192 <= 1
 0 <= t_C0193 <= 1
 0 <= t_C0194 <= 1
 0 <= t_C0195 <= 1
 0 <= t_C0196 <= 1
 0 <= t_C0197 <= 1
 0 <= t_C0198 <= 1
 0 <= t_C0199 <= 1
 0 <= t_C0200 <= 1
 0 <= t_C0201 <= 1
 0 <= t_C0202 <= 1
 0 <= t_C0203 <= 1
 0 <= t_C0204 <= 1
 0 <= t_C0205 <= 1
 0 <= t_C0206 <= 1
 0 <= t_C0207 <= 1
 0 <= t_C0208 <= 1
 0 <= t_C0209 <= 1
 0 <= t_C0210 <= 1
 0 <= t_C0211 <= 1
 0 <= t_C0212 <= 1
 0 <= t_C0213 <= 1
 0 <= t_C0214 <= 1
 0 <= t_C0215 <= 1
 0 <= t_C0216 <= 1
 0 <= t_C0217 <= 1
 0 <= t_C0218 <= 1
 0 <= t_C0219 <= 1
 0 <= t_C0220 <= 1
 0 <= t_C0221 <= 1
 0 <= t_C0222 <= 1
 0 <= t_C0223 <= 1
 0 <= t_C0224 <= 1
 0 <= t_C0225 <= 1
 0 <= t_C0226 <= 1
 0 <= t_C0227 <= 1
 0 <= t_C0228 <= 1
 0 <= t_C0229 <= 1
 0 <= t_C0230 <= 1
 0 <= t_C0231 <= 1
 0 <= t_C0232 <= 1
 0 <= t_C0233 <= 1
 0 <= t_C0234 <= 1
 0 <= t_C0235 <= 1
 0 <= t_C0236 <= 1
 0 <= t_C0237 <= 1
 0 <= t_C0238 <= 1
 0 <= t_C0239 <= 1
 0 <= t_C0240 <= 1
 0 <= t_C0241 <= 1
 0 <= t_C0242 <= 1
 0 <= t_C0243 <= 1
 0 <= t_C0244 <= 1
 0 <= t_C0245 <= 1
 0 <= t_C0246 <= 1
 0 <= t_C0247 <= 1
 0 <= t_C0248 <= 1
 0 <= t_C0249 <= 1
 0 <= t_C0250 <= 1
 0 <= t_C0251 <= 1
 0 <= t_C0252 <= 1
 0 <= t_C0253 <= 1
 0 <= t_C0254 <= 1
 0 <= t_C0255 <= 1
 0 <= t_C0256 <= 1
 0 <= t_C0257 <= 1
 28 <= t_C0273
 14 <= t_C0272
 11 <= t_C0271
 9 <= t_C0270
 28 <= t_C0269
 71 <= t_C0268
 19 <= t_C0267
 45 <= t_C0266
 55 <= t_C0265
 13 <= t_C0264
 11 <= t_C0263
 31 <= t_C0262
 7 <= t_C0261
 8 <= t_C0260
 4 <= t_C0259
 16 <= t_C0274
 t_C0017 free
 t_C0018 free
Binaries
 t_C0258 t_C0019 t_C0020 t_C0021 t_C0022 t_C0023 t_C0024 t_C0025 t_C0026 t_C0027 t_C0028 t_C0029 t_C0030
 t_C0031 t_C0032 t_C0033 t_C0034 t_C0035 t_C0036 t_C0037 t_C0038 t_C0039 t_C0040 t_C0041 t_C0042 t_C0043
 t_C0044 t_C0045 t_C0046 t_C0047 t_C0048 t_C0049 t_C0050 t_C0051 t_C0052 t_C0053 t_C0054 t_C0055 t_C0056
 t_C0057 t_C0058 t_C0059 t_C0060 t_C0061 t_C0062 t_C0063 t_C0064 t_C0065 t_C0066 t_C0067 t_C0068 t_C0069
 t_C0070 t_C0071 t_C0072 t_C0073 t_C0074 t_C0075 t_C0076 t_C0077 t_C0078 t_C0079 t_C0080 t_C0081 t_C0082
 t_C0083 t_C0084 t_C0085 t_C0086 t_C0087 t_C0088 t_C0089 t_C0090 t_C0091 t_C0092 t_C0093 t_C0094 t_C0095
 t_C0096 t_C0097 t_C0098 t_C0099 t_C0100 t_C0101 t_C0102 t_C0103 t_C0104 t_C0105 t_C0106 t_C0107 t_C0108
 t_C0109 t_C0110 t_C0111 t_C0112 t_C0113 t_C0114 t_C0115 t_C0116 t_C0117 t_C0118 t_C0119 t_C0120 t_C0121
 t_C0122 t_C0123 t_C0124 t_C0125 t_C0126 t_C0127 t_C0128 t_C0129 t_C0130 t_C0131 t_C0132 t_C0133 t_C0134
 t_C0135 t_C0136 t_C0137 t_C0138 t_C0139 t_C0140 t_C0141 t_C0142 t_C0143 t_C0144 t_C0145 t_C0146 t_C0147
 t_C0148 t_C0149 t_C0150 t_C0151 t_C0152 t_C0153 t_C0154 t_C0155 t_C0156 t_C0157 t_C0158 t_C0159 t_C0160
 t_C0161 t_C0162 t_C0163 t_C0164 t_C0165 t_C0166 t_C0167 t_C0168 t_C0169 t_C0170 t_C0171 t_C0172 t_C0173
 t_C0174 t_C0175 t_C0176 t_C0177 t_C0178 t_C0179 t_C0180 t_C0181 t_C0182 t_C0183 t_C0184 t_C0185 t_C0186
 t_C0187 t_C0188 t_C0189 t_C0190 t_C0191 t_C0192 t_C0193 t_C0194 t_C0195 t_C0196 t_C0197 t_C0198 t_C0199
 t_C0200 t_C0201 t_C0202 t_C0203 t_C0204 t_C0205 t_C0206 t_C0207 t_C0208 t_C0209 t_C0210 t_C0211 t_C0212
 t_C0213 t_C0214 t_C0215 t_C0216 t_C0217 t_C0218 t_C0219 t_C0220 t_C0221 t_C0222 t_C0223 t_C0224 t_C0225
 t_C0226 t_C0227 t_C0228 t_C0229 t_C0230 t_C0231 t_C0232 t_C0233 t_C0234 t_C0235 t_C0236 t_C0237 t_C0238
 t_C0239 t_C0240 t_C0241 t_C0242 t_C0243 t_C0244 t_C0245 t_C0246 t_C0247 t_C0248 t_C0249 t_C0250 t_C0251
 t_C0252 t_C0253 t_C0254 t_C0255 t_C0256 t_C0257
Generals
 t_C0273 t_C0272 t_C0271 t_C0270 t_C0269 t_C0268 t_C0267 t_C0266 t_C0265 t_C0264 t_C0263 t_C0262 t_C0261
 t_C0260 t_C0259 t_C0274
End
